NAME : A-n80-k10
COMMENT : (Augerat et al, Min no of trucks: 10, Best value: 1764)
TYPE : CVRP
DIMENSION : 80
EDGE_WEIGHT_TYPE : EUC_2D
CAPACITY : 100
NODE_COORD_SECTION
1 92 92
2 88 58
3 70 6
4 57 59
5 0 98
6 61 38
7 65 22
8 91 52
9 59 2
10 3 54
11 95 38
12 80 28
13 66 42
14 79 74
15 99 25
16 20 43
17 40 3
18 50 42
19 97 0
20 21 19
21 36 21
22 100 61
23 11 85
24 69 35
25 69 22
26 29 35
27 14 9
28 50 33
29 89 17
30 57 44
31 60 25
DEMAND_SECTION
1 0
2 24
3 22
4 23
5 5
6 11
7 23
8 26
9 9
10 23
11 9
12 14
13 16
14 12
15 2
16 2
17 6
18 20
19 26
20 12
21 15
22 13
23 26
24 17
25 7
26 12
27 4
28 4
29 20
30 10
31 9
DEPOT_SECTION
1
-1
EOF
